TCS_Benchmarks/redos_fix/snort1_output_distinct_2850_2849_1_0.smt2
(set-logic QF_S)
(declare-const x String)
(assert (str.in.re x (re.inter (re.* (re.comp  (str.to.re "\u{7d}")) )  (re.++ (re.* (re.comp  (str.to.re "\u{7d}")) ) (re.++  (re.++  (re.union  (str.to.re "\u{6f}")  (str.to.re "\u{4f}")) (re.++  (re.union  (str.to.re "\u{76}")  (str.to.re "\u{56}")) (re.++  (re.union  (str.to.re "\u{65}")  (str.to.re "\u{45}")) (re.++  (re.union  (str.to.re "\u{72}")  (str.to.re "\u{52}")) (re.++  (re.union  (str.to.re "\u{66}")  (str.to.re "\u{46}")) (re.++  (re.union  (str.to.re "\u{6c}")  (str.to.re "\u{4c}")) (re.++  (re.union  (str.to.re "\u{6f}")  (str.to.re "\u{4f}"))  (re.union  (str.to.re "\u{77}")  (str.to.re "\u{57}"))))))))) (re.* (re.comp  (str.to.re "\u{7d}")) ))) (re.* (re.comp  (str.to.re "\u{7d}")) ) )))
(check-sat)
(get-model)