TCS_Benchmarks/redos_fix/snort1_output_distinct_2850_2849_1_0.txt
[^}]*
([^}]*)([oO][vV][eE][rR][fF][lL][oO][wW])([^}]*)
[^}]*